Solver command line: ['C:\\Program Files\\IBM\\ILOG\\CPLEX_Studio2211\\cplex\\bin\\x64_win64\\cplex.exe']


Welcome to IBM(R) ILOG(R) CPLEX(R) Interactive Optimizer 22.1.1.0
  with Simplex, Mixed Integer & Barrier Optimizers
5725-A06 5725-A29 5724-Y48 5724-Y49 5724-Y54 5724-Y55 5655-Y21
Copyright IBM Corp. 1988, 2022.  All Rights Reserved.

Type 'help' for a list of available commands.
Type 'help' followed by a command name for more
information on commands.

CPLEX> Logfile 'cplex.log' closed.
Logfile 'C:\Users\wangy\Documents\GitHub\re_optimization\result_site_specific\tmptrgcgove.cplex.log' open.
CPLEX> Problem 'C:\Users\wangy\Documents\GitHub\re_optimization\result_site_specific\tmp36xd08ge.pyomo.lp' read.
Read time = 0.31 sec. (9.13 ticks)
CPLEX> Problem name         : C:\Users\wangy\Documents\GitHub\re_optimization\result_site_specific\tmp36xd08ge.pyomo.lp
Objective sense      : Minimize
Variables            :   65769  [Nneg: 35068,  Free: 8792,  Binary: 9,
                                 Other: 21900]
Objective nonzeros   :      17
Linear constraints   :   87665  [Less: 46741,  Greater: 5,  Equal: 40919]
  Nonzeros           :  225065
  RHS nonzeros       :    3651

Variables            : Min LB: 0.000000         Max UB: 1.000000       
Objective nonzeros   : Min   : 1.000000         Max   : 1.000000       
Linear constraints   :
  Nonzeros           : Min   : 0.002617678      Max   : 100000.0       
  RHS nonzeros       : Min   : 0.2330000        Max   : 100000.0       
CPLEX> Version identifier: 22.1.1.0 | 2022-11-27 | 9160aff4d
Tried aggregator 3 times.
MIP Presolve eliminated 53146 rows and 32703 columns.
Aggregator did 10680 substitutions.
Reduced MIP has 23839 rows, 22386 columns, and 71612 nonzeros.
Reduced MIP has 5 binaries, 0 generals, 0 SOSs, and 0 indicators.
Presolve time = 0.22 sec. (226.78 ticks)
Found incumbent of value 206357.599003 after 0.30 sec. (325.53 ticks)
Probing time = 0.02 sec. (1.25 ticks)
Tried aggregator 1 time.
Detecting symmetries...
Reduced MIP has 23839 rows, 22386 columns, and 71612 nonzeros.
Reduced MIP has 5 binaries, 0 generals, 0 SOSs, and 0 indicators.
Presolve time = 0.05 sec. (46.02 ticks)
Probing time = 0.02 sec. (1.16 ticks)
MIP emphasis: balance optimality and feasibility.
MIP search method: dynamic search.
Parallel mode: deterministic, using up to 16 threads.
Root relaxation solution time = 1.58 sec. (978.55 ticks)

        Nodes                                         Cuts/
   Node  Left     Objective  IInf  Best Integer    Best Bound    ItCnt     Gap

*     0+    0                       206357.5990    -7619.6230           103.69%
      0     0     5906.7630     1   206357.5990     5906.7630       78   97.14%
*     0+    0                         7511.4261     5906.7630            21.36%
*     0+    0                         6543.4281     5906.7630             9.73%
      0     0        cutoff           6543.4281                    720    0.00%
Elapsed time = 2.33 sec. (1842.17 ticks, tree = 0.01 MB, solutions = 3)

Root node processing (before b&c):
  Real time             =    2.33 sec. (1845.34 ticks)
Parallel b&c, 16 threads:
  Real time             =    0.00 sec. (0.00 ticks)
  Sync time (average)   =    0.00 sec.
  Wait time (average)   =    0.00 sec.
                          ------------
Total (root+branch&cut) =    2.33 sec. (1845.34 ticks)

Solution pool: 3 solutions saved.

MIP - Integer optimal solution:  Objective =  6.5434281347e+03
Solution time =    2.36 sec.  Iterations = 720  Nodes = 0
Deterministic time = 1845.53 ticks  (782.34 ticks/sec)

CPLEX> Incumbent solution written to file 'C:\Users\wangy\Documents\GitHub\re_optimization\result_site_specific\tmp3xkho_76.cplex.sol'.
CPLEX> 
